
Gurobi 9.1.2 (linux64, gurobi_cl) logging started Fri Jul 30 13:54:31 2021

Using license file /opt/gurobi/gurobi.lic
Set parameter TimeLimit to value 600
Set parameter Heuristics to value 0.1
Set parameter LogFile to value 912-Heuristics0.1-glass4-1.log
Set parameter Seed to value 1

Gurobi Optimizer version 9.1.2 build v9.1.2rc0 (linux64)
Copyright (c) 2021, Gurobi Optimization, LLC

Read MPS format model from file /nfs/models/mip/glass4.mps.bz2
Reading time = 0.00 seconds
glass4: 396 rows, 322 columns, 1815 nonzeros
Thread count: 4 physical cores, 8 logical processors, using up to 8 threads
Optimize a model with 396 rows, 322 columns and 1815 nonzeros
Model fingerprint: 0x0a9d9037
Variable types: 20 continuous, 302 integer (0 binary)
Coefficient statistics:
  Matrix range     [1e+00, 8e+06]
  Objective range  [1e+00, 1e+06]
  Bounds range     [1e+00, 8e+02]
  RHS range        [1e+00, 8e+06]
Presolve removed 6 rows and 6 columns
Presolve time: 0.00s
Presolved: 390 rows, 316 columns, 1803 nonzeros
Variable types: 19 continuous, 297 integer (297 binary)
Found heuristic solution: objective 3.133356e+09

Root relaxation: objective 8.000024e+08, 72 iterations, 0.00 seconds

    Nodes    |    Current Node    |     Objective Bounds      |     Work
 Expl Unexpl |  Obj  Depth IntInf | Incumbent    BestBd   Gap | It/Node Time

     0     0 8.0000e+08    0   72 3.1334e+09 8.0000e+08  74.5%     -    0s
H    0     0                    2.250018e+09 8.0000e+08  64.4%     -    0s
H    0     0                    2.150017e+09 8.0000e+08  62.8%     -    0s
     0     0 8.0000e+08    0   72 2.1500e+09 8.0000e+08  62.8%     -    0s
     0     0 8.0000e+08    0   72 2.1500e+09 8.0000e+08  62.8%     -    0s
     0     0 8.0000e+08    0   73 2.1500e+09 8.0000e+08  62.8%     -    0s
     0     0 8.0000e+08    0   73 2.1500e+09 8.0000e+08  62.8%     -    0s
H    0     2                    2.033352e+09 8.0000e+08  60.7%     -    0s
     0     2 8.0000e+08    0   73 2.0334e+09 8.0000e+08  60.7%     -    0s
H   96   184                    1.991685e+09 8.0000e+08  59.8%  10.1    0s
H  183   360                    1.991685e+09 8.0000e+08  59.8%   6.5    0s
H  212   360                    1.983352e+09 8.0000e+08  59.7%   6.7    0s
H  374   498                    1.900017e+09 8.0000e+08  57.9%   6.3    0s
H  556   663                    1.900016e+09 8.0000e+08  57.9%   6.0    0s
H  708   805                    1.900016e+09 8.0000e+08  57.9%   6.3    0s
H  860   891                    1.700015e+09 8.0000e+08  52.9%   6.5    0s
H 1312  1031                    1.700014e+09 8.0000e+08  52.9%   9.6    1s
H 1435  1038                    1.600015e+09 8.0000e+08  50.0%   9.9    1s
H 3184  1635                    1.600014e+09 8.0001e+08  50.0%  16.3    2s
H 3554  1852                    1.600014e+09 8.0001e+08  50.0%  17.6    3s
H 3556  1852                    1.600014e+09 8.0001e+08  50.0%  17.6    3s
H 4503  2301                    1.450014e+09 8.0001e+08  44.8%  19.6    4s
H 4738  2272                    1.433347e+09 8.0001e+08  44.2%  20.1    4s
H 4742  2264                    1.400014e+09 8.0001e+08  42.9%  20.1    4s
  5345  2700 1.0000e+09   31   86 1.4000e+09 8.0001e+08  42.9%  22.8    5s
  9512  4175 1.1000e+09   36   50 1.4000e+09 8.0001e+08  42.9%  31.7   10s
 13624  5591 9.4498e+08   42   71 1.4000e+09 8.0345e+08  42.6%  36.8   15s
 20139  7241 infeasible   48      1.4000e+09 8.5001e+08  39.3%  41.0   20s
 30181  9303 1.2000e+09   35   73 1.4000e+09 9.0001e+08  35.7%  43.3   26s
H30189  8842                    1.400014e+09 9.0001e+08  35.7%  43.3   27s
 30224  8866 1.0000e+09   42  128 1.4000e+09 9.0001e+08  35.7%  43.3   30s
 30282  8904 1.0000e+09   31  112 1.4000e+09 9.0001e+08  35.7%  43.2   35s
 30338  8942 9.0233e+08   33  112 1.4000e+09 9.0001e+08  35.7%  43.1   40s
 30386  8979 9.0001e+08   27  104 1.4000e+09 9.0001e+08  35.7%  44.2   45s
 33321  8942 1.4000e+09   38   51 1.4000e+09 1.0000e+09  28.6%  44.0   50s
*33460  8443              49    1.400013e+09 1.0000e+09  28.6%  43.9   50s
*34457  7907              55    1.400013e+09 1.0000e+09  28.6%  43.5   50s
*40402  5662              54    1.350013e+09 1.2000e+09  11.1%  40.9   51s
*41021  4805              47    1.320013e+09 1.2000e+09  9.09%  40.6   52s
*41024  4056              49    1.266680e+09 1.2000e+09  5.26%  40.6   52s
*41025  3619              49    1.200013e+09 1.2000e+09  0.00%  40.6   52s

Cutting planes:
  Gomory: 1
  Implied bound: 1
  MIR: 38
  Flow cover: 68
  Relax-and-lift: 63

Explored 41884 nodes (1690315 simplex iterations) in 52.19 seconds
Thread count was 8 (of 8 available processors)

Solution count 10: 1.20001e+09 1.26668e+09 1.32001e+09 ... 1.45001e+09

Optimal solution found (tolerance 1.00e-04)
Best objective 1.200012600000e+09, best bound 1.200006089792e+09, gap 0.0005%
